\ Generated by MPModelProtoExporter
\   Name             : 
\   Format           : Free
\   Constraints      : 2
\   Variables        : 2
\     Binary         : 0
\     Integer        : 0
\     Continuous     : 2
Maximize
 Obj: +3 x +1 y 
Subject to
 r1_rhs: +3 x +2 y  <= 10
 r1_lhs: +3 x +2 y  >= inf
 ct: +1 x +1 y  <= 2
Bounds
 0 <= x <= 1
 0 <= y <= 2
End
